49
Lattice="12.3 0.0 0.0 -6.15 10.652112466548596 0.0 0.0 -0.0 18.0" Properties=species:S:1:pos:R:3 pbc="T T F"
C        0.00000000       0.00000000       9.00000000
C        1.23000000       0.71014083       9.00000000
C       -1.23000000       2.13042249       9.00000000
C        0.00000000       2.84056332       9.00000000
C       -2.46000000       4.26084499       9.00000000
C       -1.23000000       4.97098582       9.00000000
C       -3.69000000       6.39126748       9.00000000
C       -2.46000000       7.10140831       9.00000000
C       -4.92000000       8.52168997       9.00000000
C       -3.69000000       9.23183080       9.00000000
C        2.46000000       0.00000000       9.00000000
C        3.69000000       0.71014083       9.00000000
C        1.23000000       2.13042249       9.00000000
C        2.46000000       2.84056332       9.00000000
C        0.00000000       4.26084499       9.00000000
C        1.23000000       4.97098582       9.00000000
C       -1.23000000       6.39126748       9.00000000
C        0.00000000       7.10140831       9.00000000
C       -2.46000000       8.52168997       9.00000000
C       -1.23000000       9.23183080       9.00000000
C        4.92000000       0.00000000       9.00000000
C        6.15000000       0.71014083       9.00000000
C        3.69000000       2.13042249       9.00000000
C        4.92000000       2.84056332       9.00000000
C        2.46000000       4.26084499       9.00000000
C        1.23000000       6.39126748       9.00000000
C        2.46000000       7.10140831       9.00000000
C        0.00000000       8.52168997       9.00000000
C        1.23000000       9.23183080       9.00000000
C        7.38000000       0.00000000       9.00000000
C        8.61000000       0.71014083       9.00000000
C        6.15000000       2.13042249       9.00000000
C        7.38000000       2.84056332       9.00000000
C        4.92000000       4.26084499       9.00000000
C        6.15000000       4.97098582       9.00000000
C        3.69000000       6.39126748       9.00000000
C        4.92000000       7.10140831       9.00000000
C        2.46000000       8.52168997       9.00000000
C        3.69000000       9.23183080       9.00000000
C        9.84000000       0.00000000       9.00000000
C       11.07000000       0.71014083       9.00000000
C        8.61000000       2.13042249       9.00000000
C        9.84000000       2.84056332       9.00000000
C        7.38000000       4.26084499       9.00000000
C        8.61000000       4.97098582       9.00000000
C        6.15000000       6.39126748       9.00000000
C        7.38000000       7.10140831       9.00000000
C        4.92000000       8.52168997       9.00000000
C        6.15000000       9.23183080       9.00000000
